
Gurobi 7.5.2 (linux64) logging started Thu Mar 21 00:40:08 2019

Changed value of parameter LogFile to /home/aniket/python_scripts/Plasmids/exp/2019-03-21__iterative_with_questionable/output/sample_56/1.1.1/nplasmids_1/MILP/m.log
   Prev: gurobi.log  Default: 
Changed value of parameter TimeLimit to 2400.0
   Prev: 1e+100  Min: 0.0  Max: 1e+100  Default: 1e+100
Optimize a model with 8912 rows, 2592 columns and 69006 nonzeros
Variable types: 682 continuous, 1910 integer (1002 binary)
Coefficient statistics:
  Matrix range     [1e-01, 1e+06]
  Objective range  [8e-04, 6e+05]
  Bounds range     [1e+00, 1e+00]
  RHS range        [5e-01, 1e+06]
Presolve removed 7044 rows and 1517 columns
Presolve time: 0.06s
Presolved: 1868 rows, 1075 columns, 6272 nonzeros
Variable types: 216 continuous, 859 integer (644 binary)
Found heuristic solution: objective -147651.9265

Root relaxation: objective -4.692346e+05, 1157 iterations, 0.02 seconds

    Nodes    |    Current Node    |     Objective Bounds      |     Work
 Expl Unexpl |  Obj  Depth IntInf | Incumbent    BestBd   Gap | It/Node Time

     0     0 -469234.59    0   53 -147651.93 -469234.59   218%     -    0s
     0     0 -452827.95    0   60 -147651.93 -452827.95   207%     -    0s
H    0     0                    -288505.0832 -452827.95  57.0%     -    0s
     0     0 -451643.05    0   60 -288505.08 -451643.05  56.5%     -    0s
     0     0 -451629.08    0   60 -288505.08 -451629.08  56.5%     -    0s
     0     0 -451615.75    0   60 -288505.08 -451615.75  56.5%     -    0s
     0     0 -446147.57    0   82 -288505.08 -446147.57  54.6%     -    0s
H    0     0                    -344296.1726 -446147.57  29.6%     -    0s
     0     0 -443548.00    0   90 -344296.17 -443548.00  28.8%     -    0s
     0     0 -442562.80    0   93 -344296.17 -442562.80  28.5%     -    0s
     0     0 -442277.06    0  102 -344296.17 -442277.06  28.5%     -    0s
     0     0 -441750.24    0   93 -344296.17 -441750.24  28.3%     -    0s
     0     0 -440341.43    0   91 -344296.17 -440341.43  27.9%     -    0s
     0     0 -436327.52    0   71 -344296.17 -436327.52  26.7%     -    0s
     0     0 -435586.98    0   75 -344296.17 -435586.98  26.5%     -    0s
     0     0 -435205.45    0   75 -344296.17 -435205.45  26.4%     -    0s
     0     0 -435199.36    0   79 -344296.17 -435199.36  26.4%     -    0s
     0     0 -435199.04    0   79 -344296.17 -435199.04  26.4%     -    0s
     0     0 -431902.68    0   80 -344296.17 -431902.68  25.4%     -    0s
H    0     0                    -402191.2043 -431902.68  7.39%     -    0s
     0     0 -430793.69    0   69 -402191.20 -430793.69  7.11%     -    0s
     0     0 -415656.43    0   73 -402191.20 -415656.43  3.35%     -    0s
     0     0 -415462.78    0   63 -402191.20 -415462.78  3.30%     -    0s
     0     0 -415080.65    0   55 -402191.20 -415080.65  3.20%     -    0s
     0     0 -414713.50    0   54 -402191.20 -414713.50  3.11%     -    0s
     0     0 -414713.41    0   54 -402191.20 -414713.41  3.11%     -    0s
     0     0 -411115.57    0   20 -402191.20 -411115.57  2.22%     -    0s
H    0     0                    -402197.5371 -411115.57  2.22%     -    0s
*    0     0               0    -404954.0264 -404954.03  0.00%     -    0s

Explored 1 nodes (2247 simplex iterations) in 0.26 seconds
Thread count was 4 (of 4 available processors)

Solution count 6: -404954 -402198 -402191 ... -147652

Optimal solution found (tolerance 1.00e-04)
Best objective -4.049540264000e+05, best bound -4.049540264000e+05, gap 0.0000%

Gurobi 7.5.2 (linux64) logging started Thu Mar 21 00:40:08 2019

Changed value of parameter LogFile to /home/aniket/python_scripts/Plasmids/exp/2019-03-21__iterative_with_questionable/output/sample_56/1.1.1/nplasmids_1/MILP/m.log
   Prev: gurobi.log  Default: 
Changed value of parameter TimeLimit to 2400.0
   Prev: 1e+100  Min: 0.0  Max: 1e+100  Default: 1e+100
Optimize a model with 8379 rows, 2436 columns and 62159 nonzeros
Variable types: 643 continuous, 1793 integer (937 binary)
Coefficient statistics:
  Matrix range     [7e-02, 1e+06]
  Objective range  [8e-04, 2e+05]
  Bounds range     [1e+00, 1e+00]
  RHS range        [7e-02, 1e+06]
Presolve removed 6520 rows and 1367 columns
Presolve time: 0.06s
Presolved: 1859 rows, 1069 columns, 6245 nonzeros
Variable types: 215 continuous, 854 integer (640 binary)
Found heuristic solution: objective -147651.9265

Root relaxation: objective -2.701313e+05, 1152 iterations, 0.02 seconds

    Nodes    |    Current Node    |     Objective Bounds      |     Work
 Expl Unexpl |  Obj  Depth IntInf | Incumbent    BestBd   Gap | It/Node Time

     0     0 -270131.30    0   70 -147651.93 -270131.30  83.0%     -    0s
H    0     0                    -160244.6373 -270131.30  68.6%     -    0s
     0     0 -248081.08    0   98 -160244.64 -248081.08  54.8%     -    0s
     0     0 -247188.14    0  122 -160244.64 -247188.14  54.3%     -    0s
     0     0 -233465.70    0   77 -160244.64 -233465.70  45.7%     -    0s
     0     0 -231081.22    0   94 -160244.64 -231081.22  44.2%     -    0s
     0     0 -229339.36    0   92 -160244.64 -229339.36  43.1%     -    0s
     0     0 -229328.10    0   89 -160244.64 -229328.10  43.1%     -    0s
     0     0 -229310.21    0   94 -160244.64 -229310.21  43.1%     -    0s
     0     0 -229307.89    0   94 -160244.64 -229307.89  43.1%     -    0s
     0     0 -226568.40    0   51 -160244.64 -226568.40  41.4%     -    0s
     0     0 -226546.65    0   51 -160244.64 -226546.65  41.4%     -    0s
     0     0 -226124.95    0  191 -160244.64 -226124.95  41.1%     -    0s
     0     0 -226018.89    0  206 -160244.64 -226018.89  41.0%     -    0s
     0     0 -225992.69    0  201 -160244.64 -225992.69  41.0%     -    0s
     0     0 -225992.68    0  217 -160244.64 -225992.68  41.0%     -    0s
     0     0 -225825.33    0   93 -160244.64 -225825.33  40.9%     -    0s
     0     0 -225581.82    0   87 -160244.64 -225581.82  40.8%     -    0s
     0     0 -225057.43    0  100 -160244.64 -225057.43  40.4%     -    0s
     0     0 -224637.51    0   68 -160244.64 -224637.51  40.2%     -    0s
     0     0 -224400.86    0   74 -160244.64 -224400.86  40.0%     -    0s
     0     0 -224129.03    0   40 -160244.64 -224129.03  39.9%     -    0s
     0     0 -223939.36    0   54 -160244.64 -223939.36  39.7%     -    0s
     0     0 -223926.36    0   62 -160244.64 -223926.36  39.7%     -    0s
     0     0 -222671.60    0  172 -160244.64 -222671.60  39.0%     -    0s
     0     0 -222503.95    0  208 -160244.64 -222503.95  38.9%     -    0s
     0     0 -222491.37    0  229 -160244.64 -222491.37  38.8%     -    0s
     0     0 -221570.54    0   86 -160244.64 -221570.54  38.3%     -    0s
     0     0 -221481.37    0   65 -160244.64 -221481.37  38.2%     -    0s
     0     0 -221460.73    0   35 -160244.64 -221460.73  38.2%     -    0s
     0     0 -221459.95    0   42 -160244.64 -221459.95  38.2%     -    0s
     0     0 -221170.88    0    2 -160244.64 -221170.88  38.0%     -    0s
H    0     0                    -184394.9009 -221170.88  19.9%     -    0s
     0     0 -221162.61    0    4 -184394.90 -221162.61  19.9%     -    0s
     0     0 -221161.01    0    2 -184394.90 -221161.01  19.9%     -    0s
     0     0 -221161.01    0    2 -184394.90 -221161.01  19.9%     -    0s
     0     0 -221157.60    0    4 -184394.90 -221157.60  19.9%     -    0s
     0     0 -221157.60    0    4 -184394.90 -221157.60  19.9%     -    0s
H    0     0                    -184441.3458 -221157.60  19.9%     -    0s
     0     0 -221157.60    0   72 -184441.35 -221157.60  19.9%     -    0s
     0     0 -221157.60    0   91 -184441.35 -221157.60  19.9%     -    0s
     0     0 -221111.35    0    4 -184441.35 -221111.35  19.9%     -    0s
*    0     0               0    -221106.9458 -221106.95  0.00%     -    0s

Cutting planes:
  Implied bound: 1
  MIR: 5
  Flow cover: 30
  Zero half: 1

Explored 1 nodes (3935 simplex iterations) in 0.60 seconds
Thread count was 4 (of 4 available processors)

Solution count 5: -221107 -184441 -184395 ... -147652
No other solutions better than -221107

Optimal solution found (tolerance 1.00e-04)
Best objective -2.211069457941e+05, best bound -2.211069457941e+05, gap 0.0000%

Gurobi 7.5.2 (linux64) logging started Thu Mar 21 00:40:09 2019

Changed value of parameter LogFile to /home/aniket/python_scripts/Plasmids/exp/2019-03-21__iterative_with_questionable/output/sample_56/1.1.1/nplasmids_1/MILP/m.log
   Prev: gurobi.log  Default: 
Changed value of parameter TimeLimit to 2400.0
   Prev: 1e+100  Min: 0.0  Max: 1e+100  Default: 1e+100
Optimize a model with 841 rows, 244 columns and 2055 nonzeros
Variable types: 67 continuous, 177 integer (89 binary)
Coefficient statistics:
  Matrix range     [1e-01, 1e+06]
  Objective range  [5e-03, 2e+04]
  Bounds range     [1e+00, 1e+00]
  RHS range        [1e-01, 1e+06]
Presolve removed 666 rows and 154 columns
Presolve time: 0.00s
Presolved: 175 rows, 90 columns, 539 nonzeros
Variable types: 23 continuous, 67 integer (45 binary)
Found heuristic solution: objective -6490.597692

Root relaxation: objective -7.621949e+04, 75 iterations, 0.00 seconds

    Nodes    |    Current Node    |     Objective Bounds      |     Work
 Expl Unexpl |  Obj  Depth IntInf | Incumbent    BestBd   Gap | It/Node Time

     0     0 -76219.492    0   29 -6490.5977 -76219.492  1074%     -    0s
H    0     0                    -73203.49209 -76219.492  4.12%     -    0s
     0     0     cutoff    0      -73203.492 -73203.492  0.00%     -    0s
     0     0     cutoff    0      -73203.492 -73203.492  0.00%     -    0s

Explored 1 nodes (96 simplex iterations) in 0.01 seconds
Thread count was 4 (of 4 available processors)

Solution count 2: -73203.5 -6490.6 

Optimal solution found (tolerance 1.00e-04)
Best objective -7.320349208621e+04, best bound -7.320349208621e+04, gap 0.0000%

Gurobi 7.5.2 (linux64) logging started Thu Mar 21 00:40:09 2019

Changed value of parameter LogFile to /home/aniket/python_scripts/Plasmids/exp/2019-03-21__iterative_with_questionable/output/sample_56/1.1.1/nplasmids_1/MILP/m.log
   Prev: gurobi.log  Default: 
Changed value of parameter TimeLimit to 2400.0
   Prev: 1e+100  Min: 0.0  Max: 1e+100  Default: 1e+100
Optimize a model with 798 rows, 232 columns and 1917 nonzeros
Variable types: 64 continuous, 168 integer (84 binary)
Coefficient statistics:
  Matrix range     [1e-01, 1e+06]
  Objective range  [5e-03, 2e+04]
  Bounds range     [1e+00, 1e+00]
  RHS range        [1e-01, 1e+06]
Presolve removed 639 rows and 151 columns
Presolve time: 0.00s
Presolved: 159 rows, 81 columns, 488 nonzeros
Variable types: 21 continuous, 60 integer (40 binary)
Found heuristic solution: objective -2566.447317

Root relaxation: objective -1.519963e+04, 59 iterations, 0.00 seconds

    Nodes    |    Current Node    |     Objective Bounds      |     Work
 Expl Unexpl |  Obj  Depth IntInf | Incumbent    BestBd   Gap | It/Node Time

     0     0 -15199.628    0   23 -2566.4473 -15199.628   492%     -    0s
H    0     0                    -9095.875694 -15199.628  67.1%     -    0s
     0     0 -12106.364    0   21 -9095.8757 -12106.364  33.1%     -    0s
H    0     0                    -9247.658978 -12106.364  30.9%     -    0s
     0     0 -12100.763    0   21 -9247.6590 -12100.763  30.9%     -    0s
     0     0 -10005.895    0   23 -9247.6590 -10005.895  8.20%     -    0s
     0     0 -9623.0357    0   17 -9247.6590 -9623.0357  4.06%     -    0s
     0     0 -9557.3896    0    2 -9247.6590 -9557.3896  3.35%     -    0s
     0     0 -9251.1301    0    5 -9247.6590 -9251.1301  0.04%     -    0s

Cutting planes:
  Cover: 6
  Flow cover: 3

Explored 1 nodes (157 simplex iterations) in 0.02 seconds
Thread count was 4 (of 4 available processors)

Solution count 3: -9247.66 -9095.88 -2566.45 

Optimal solution found (tolerance 1.00e-04)
Best objective -9.247658977912e+03, best bound -9.247658977912e+03, gap 0.0000%

Gurobi 7.5.2 (linux64) logging started Thu Mar 21 00:40:09 2019

Changed value of parameter LogFile to /home/aniket/python_scripts/Plasmids/exp/2019-03-21__iterative_with_questionable/output/sample_56/1.1.1/nplasmids_1/MILP/m.log
   Prev: gurobi.log  Default: 
Changed value of parameter TimeLimit to 2400.0
   Prev: 1e+100  Min: 0.0  Max: 1e+100  Default: 1e+100
Optimize a model with 638 rows, 186 columns and 1444 nonzeros
Variable types: 52 continuous, 134 integer (66 binary)
Coefficient statistics:
  Matrix range     [1e-01, 1e+06]
  Objective range  [5e-03, 6e+03]
  Bounds range     [1e+00, 1e+00]
  RHS range        [1e-01, 1e+06]
Found heuristic solution: objective 77.8067044
Presolve removed 525 rows and 129 columns
Presolve time: 0.00s
Presolved: 113 rows, 57 columns, 334 nonzeros
Variable types: 16 continuous, 41 integer (26 binary)

Root relaxation: objective -1.109290e+04, 33 iterations, 0.00 seconds

    Nodes    |    Current Node    |     Objective Bounds      |     Work
 Expl Unexpl |  Obj  Depth IntInf | Incumbent    BestBd   Gap | It/Node Time

     0     0 -11092.900    0   15   77.80670 -11092.900      -     -    0s
H    0     0                    -1461.367876 -11092.900   659%     -    0s
H    0     0                    -1463.699756 -11092.900   658%     -    0s
H    0     0                    -1464.780039 -11092.900   657%     -    0s
     0     0 -3686.0502    0   10 -1464.7800 -3686.0502   152%     -    0s
H    0     0                    -2521.845750 -3686.0502  46.2%     -    0s
     0     0 -3683.4658    0    9 -2521.8457 -3683.4658  46.1%     -    0s
     0     0 -2774.0843    0    5 -2521.8457 -2774.0843  10.0%     -    0s
H    0     0                    -2721.314335 -2774.0843  1.94%     -    0s
*    0     0               0    -2722.394618 -2722.3946  0.00%     -    0s

Cutting planes:
  Gomory: 3
  Cover: 4
  Implied bound: 1
  MIR: 1
  Flow cover: 1

Explored 1 nodes (90 simplex iterations) in 0.01 seconds
Thread count was 4 (of 4 available processors)

Solution count 7: -2722.39 -2721.31 -2521.85 ... 77.8067

Optimal solution found (tolerance 1.00e-04)
Best objective -2.722394618012e+03, best bound -2.722394618012e+03, gap 0.0000%

Gurobi 7.5.2 (linux64) logging started Thu Mar 21 00:40:09 2019

Changed value of parameter LogFile to /home/aniket/python_scripts/Plasmids/exp/2019-03-21__iterative_with_questionable/output/sample_56/1.1.1/nplasmids_1/MILP/m.log
   Prev: gurobi.log  Default: 
Changed value of parameter TimeLimit to 2400.0
   Prev: 1e+100  Min: 0.0  Max: 1e+100  Default: 1e+100
Optimize a model with 597 rows, 174 columns and 1325 nonzeros
Variable types: 49 continuous, 125 integer (61 binary)
Coefficient statistics:
  Matrix range     [1e-01, 1e+06]
  Objective range  [5e-03, 5e+03]
  Bounds range     [1e+00, 1e+00]
  RHS range        [1e-01, 1e+06]
Found heuristic solution: objective 74.1903963
Presolve removed 538 rows and 138 columns
Presolve time: 0.00s
Presolved: 59 rows, 36 columns, 165 nonzeros
Variable types: 14 continuous, 22 integer (22 binary)

Root relaxation: objective -1.008758e+03, 43 iterations, 0.00 seconds

    Nodes    |    Current Node    |     Objective Bounds      |     Work
 Expl Unexpl |  Obj  Depth IntInf | Incumbent    BestBd   Gap | It/Node Time

     0     0 -1008.7577    0    4   74.19040 -1008.7577  1460%     -    0s
H    0     0                    -953.3651890 -1008.7577  5.81%     -    0s
H    0     0                    -956.7773520 -1008.7577  5.43%     -    0s
     0     0     cutoff    0      -956.77735 -956.77735  0.00%     -    0s
     0     0     cutoff    0      -956.77735 -956.77735  0.00%     -    0s

Explored 1 nodes (54 simplex iterations) in 0.00 seconds
Thread count was 4 (of 4 available processors)

Solution count 3: -956.777 -953.365 74.1904 

Optimal solution found (tolerance 1.00e-04)
Best objective -9.567773520425e+02, best bound -9.567773520425e+02, gap 0.0000%

Gurobi 7.5.2 (linux64) logging started Thu Mar 21 00:40:09 2019

Changed value of parameter LogFile to /home/aniket/python_scripts/Plasmids/exp/2019-03-21__iterative_with_questionable/output/sample_56/1.1.1/nplasmids_1/MILP/m.log
   Prev: gurobi.log  Default: 
Changed value of parameter TimeLimit to 2400.0
   Prev: 1e+100  Min: 0.0  Max: 1e+100  Default: 1e+100
Optimize a model with 559 rows, 163 columns and 1223 nonzeros
Variable types: 46 continuous, 117 integer (57 binary)
Coefficient statistics:
  Matrix range     [1e-01, 1e+06]
  Objective range  [5e-03, 5e+03]
  Bounds range     [1e+00, 1e+00]
  RHS range        [1e-01, 1e+06]
Found heuristic solution: objective 68.3643261
Presolve removed 505 rows and 130 columns
Presolve time: 0.00s
Presolved: 54 rows, 33 columns, 155 nonzeros
Variable types: 13 continuous, 20 integer (20 binary)

Root relaxation: objective -1.276201e+04, 27 iterations, 0.00 seconds

    Nodes    |    Current Node    |     Objective Bounds      |     Work
 Expl Unexpl |  Obj  Depth IntInf | Incumbent    BestBd   Gap | It/Node Time

*    0     0               0    -12762.01487 -12762.015  0.00%     -    0s

Explored 0 nodes (27 simplex iterations) in 0.00 seconds
Thread count was 4 (of 4 available processors)

Solution count 2: -12762 68.3643 

Optimal solution found (tolerance 1.00e-04)
Best objective -1.276201486918e+04, best bound -1.276201486918e+04, gap 0.0000%

Gurobi 7.5.2 (linux64) logging started Thu Mar 21 00:40:09 2019

Changed value of parameter LogFile to /home/aniket/python_scripts/Plasmids/exp/2019-03-21__iterative_with_questionable/output/sample_56/1.1.1/nplasmids_1/MILP/m.log
   Prev: gurobi.log  Default: 
Changed value of parameter TimeLimit to 2400.0
   Prev: 1e+100  Min: 0.0  Max: 1e+100  Default: 1e+100
Optimize a model with 523 rows, 152 columns and 1131 nonzeros
Variable types: 43 continuous, 109 integer (53 binary)
Coefficient statistics:
  Matrix range     [5e-02, 1e+06]
  Objective range  [5e-03, 5e+03]
  Bounds range     [1e+00, 1e+00]
  RHS range        [5e-02, 1e+06]
Presolve removed 479 rows and 125 columns
Presolve time: 0.00s
Presolved: 44 rows, 27 columns, 126 nonzeros
Variable types: 10 continuous, 17 integer (16 binary)
Found heuristic solution: objective -232.9663184
Found heuristic solution: objective -236.6356967

Root relaxation: objective -2.416031e+02, 11 iterations, 0.00 seconds

    Nodes    |    Current Node    |     Objective Bounds      |     Work
 Expl Unexpl |  Obj  Depth IntInf | Incumbent    BestBd   Gap | It/Node Time

     0     0 -241.60311    0    2 -236.63570 -241.60311  2.10%     -    0s
*    0     0               0    -238.9675767 -238.96758  0.00%     -    0s

Cutting planes:
  Cover: 1

Explored 1 nodes (16 simplex iterations) in 0.00 seconds
Thread count was 4 (of 4 available processors)

Solution count 3: -238.968 -236.636 -232.966 

Optimal solution found (tolerance 1.00e-04)
Best objective -2.389675766528e+02, best bound -2.389675766528e+02, gap 0.0000%

Gurobi 7.5.2 (linux64) logging started Thu Mar 21 00:40:09 2019

Changed value of parameter LogFile to /home/aniket/python_scripts/Plasmids/exp/2019-03-21__iterative_with_questionable/output/sample_56/1.1.1/nplasmids_1/MILP/m.log
   Prev: gurobi.log  Default: 
Changed value of parameter TimeLimit to 2400.0
   Prev: 1e+100  Min: 0.0  Max: 1e+100  Default: 1e+100
Optimize a model with 484 rows, 140 columns and 1028 nonzeros
Variable types: 40 continuous, 100 integer (48 binary)
Coefficient statistics:
  Matrix range     [5e-02, 1e+06]
  Objective range  [5e-03, 5e+03]
  Bounds range     [1e+00, 1e+00]
  RHS range        [5e-02, 1e+06]
Presolve removed 202 rows and 0 columns
Presolve time: 0.00s

Explored 0 nodes (0 simplex iterations) in 0.00 seconds
Thread count was 1 (of 4 available processors)

Solution count 0

Model is infeasible or unbounded
Best objective -, best bound -, gap -
Presolve removed 202 rows and 0 columns
Presolve time: 0.00s

Explored 0 nodes (0 simplex iterations) in 0.00 seconds
Thread count was 1 (of 4 available processors)

Solution count 0

Model is infeasible
Best objective -, best bound -, gap -

Computing Irreducible Inconsistent Subsystem (IIS)...

      Constraints           Bounds       Runtime
     Min       Max       Min      Max
------------------------------------------------
        0      400         0       92         0s
       23       23         0        0         0s

IIS computed: 23 constraints, 0 bounds
IIS runtime: 0.08 seconds
Warning: linear constraint 0 and linear constraint 1 have the same name "extr_ubd"
